computational_data/solutions/ER_n30_p020_s2.sol
Optimal - objective value 12.00000000
      4 r_4                         1                       1
     14 r_14                        1                       1
     20 r_20                        1                       1
     27 r_27                        1                       1
     41 b_11                        1                       1
     45 b_15                        1                       1
     48 b_18                        1                       1
     51 b_21                        1                       1
     53 b_23                        1                       1
     55 b_25                        1                       1
     56 b_26                        1                       1
     59 b_29                        1                       1
